solution status: optimal solution found
objective value:                     162329.858993763
d11(0,0)                                            1 	(obj:0)
d11(1,1)                                            1 	(obj:0)
d11(1,2)                                            1 	(obj:0)
d11(1,3)                                            1 	(obj:0)
d11(3,13)                                           1 	(obj:0)
d11(3,14)                                           1 	(obj:0)
d11(3,15)                                           1 	(obj:0)
d11(3,16)                                           1 	(obj:0)
d11(3,17)                                           1 	(obj:0)
d11(3,19)                                           1 	(obj:0)
d11(3,20)                                           1 	(obj:0)
d11(3,21)                                           1 	(obj:0)
d11(3,22)                                           1 	(obj:0)
d11(3,23)                                           1 	(obj:0)
d11(3,24)                                           1 	(obj:0)
d11(3,25)                                           1 	(obj:0)
d11(3,26)                                           1 	(obj:0)
d11(3,27)                                           1 	(obj:0)
d11(3,28)                                           1 	(obj:0)
d11(3,29)                                           1 	(obj:0)
d11(3,30)                                           1 	(obj:0)
d11(3,31)                                           1 	(obj:0)
d11(3,32)                                           1 	(obj:0)
d11(3,33)                                           1 	(obj:0)
d11(3,34)                                           1 	(obj:0)
d11(3,35)                                           1 	(obj:0)
d11(3,36)                                           1 	(obj:0)
d11(3,37)                                           1 	(obj:0)
d11(3,38)                                           1 	(obj:0)
d11(3,39)                                           1 	(obj:0)
d11(4,40)                                           1 	(obj:0)
d11(4,41)                                           1 	(obj:0)
d11(4,42)                                           1 	(obj:0)
d11(4,43)                                           1 	(obj:0)
d11(4,44)                                           1 	(obj:0)
d11(4,45)                                           1 	(obj:0)
d11(4,46)                                           1 	(obj:0)
d11(4,47)                                           1 	(obj:0)
d11(4,48)                                           1 	(obj:0)
d11(4,49)                                           1 	(obj:0)
d11(4,50)                                           1 	(obj:0)
d11(4,51)                                           1 	(obj:0)
d11(4,52)                                           1 	(obj:0)
d11(4,53)                                           1 	(obj:0)
d11(4,54)                                           1 	(obj:0)
d11(4,55)                                           1 	(obj:0)
d11(4,56)                                           1 	(obj:0)
d11(4,57)                                           1 	(obj:0)
d11(4,58)                                           1 	(obj:0)
d11(4,59)                                           1 	(obj:0)
d11(4,60)                                           1 	(obj:0)
d11(4,61)                                           1 	(obj:0)
d11(4,62)                                           1 	(obj:0)
d11(4,63)                                           1 	(obj:0)
d11(4,64)                                           1 	(obj:0)
d11(4,65)                                           1 	(obj:0)
d11(4,66)                                           1 	(obj:0)
d11(4,67)                                           1 	(obj:0)
d11(4,68)                                           1 	(obj:0)
d11(4,69)                                           1 	(obj:0)
d11(4,70)                                           1 	(obj:0)
d11(4,71)                                           1 	(obj:0)
d11(4,72)                                           1 	(obj:0)
d11(4,73)                                           1 	(obj:0)
d11(4,74)                                           1 	(obj:0)
d11(4,75)                                           1 	(obj:0)
d11(4,76)                                           1 	(obj:0)
d11(4,77)                                           1 	(obj:0)
d11(4,78)                                           1 	(obj:0)
d11(4,79)                                           1 	(obj:0)
d11(4,80)                                           1 	(obj:0)
d11(4,81)                                           1 	(obj:0)
d11(4,82)                                           1 	(obj:0)
d11(4,83)                                           1 	(obj:0)
d11(4,84)                                           1 	(obj:0)
d11(4,85)                                           1 	(obj:0)
d11(4,86)                                           1 	(obj:0)
d11(4,87)                                           1 	(obj:0)
d11(4,88)                                           1 	(obj:0)
d11(4,89)                                           1 	(obj:0)
d11(4,90)                                           1 	(obj:0)
d11(4,91)                                           1 	(obj:0)
d11(4,92)                                           1 	(obj:0)
d11(4,93)                                           1 	(obj:0)
d11(4,94)                                           1 	(obj:0)
d11(4,95)                                           1 	(obj:0)
d11(4,96)                                           1 	(obj:0)
d11(4,97)                                           1 	(obj:0)
d11(4,98)                                           1 	(obj:0)
d11(4,99)                                           1 	(obj:0)
d11(4,100)                                          1 	(obj:0)
d11(4,101)                                          1 	(obj:0)
d11(4,102)                                          1 	(obj:0)
d11(4,103)                                          1 	(obj:0)
d11(4,104)                                          1 	(obj:0)
d11(4,105)                                          1 	(obj:0)
d11(4,106)                                          1 	(obj:0)
d11(4,107)                                          1 	(obj:0)
d11(4,108)                                          1 	(obj:0)
d11(4,109)                                          1 	(obj:0)
d11(4,110)                                          1 	(obj:0)
d11(4,111)                                          1 	(obj:0)
d11(4,112)                                          1 	(obj:0)
d11(4,113)                                          1 	(obj:0)
d11(4,115)                                          1 	(obj:0)
d11(4,116)                                          1 	(obj:0)
d11(4,117)                                          1 	(obj:0)
d11(4,118)                                          1 	(obj:0)
d11(4,119)                                          1 	(obj:0)
d11(4,120)                                          1 	(obj:0)
d12(2,4)                                            1 	(obj:0)
d12(2,5)                                            1 	(obj:0)
d12(2,6)                                            1 	(obj:0)
d12(2,7)                                            1 	(obj:0)
d12(2,8)                                            1 	(obj:0)
d12(2,9)                                            1 	(obj:0)
d12(2,10)                                           1 	(obj:0)
d12(2,11)                                           1 	(obj:0)
d12(2,12)                                           1 	(obj:0)
d21(3,13)                                           1 	(obj:0)
d21(3,14)                                           1 	(obj:0)
d21(3,16)                                           1 	(obj:0)
d21(3,22)                                           1 	(obj:0)
d21(4,40)                                           1 	(obj:0)
d21(4,41)                                           1 	(obj:0)
d21(4,42)                                           1 	(obj:0)
d21(4,43)                                           1 	(obj:0)
d21(4,44)                                           1 	(obj:0)
d21(4,45)                                           1 	(obj:0)
d21(4,46)                                           1 	(obj:0)
d21(4,47)                                           1 	(obj:0)
d21(4,49)                                           1 	(obj:0)
d21(4,50)                                           1 	(obj:0)
d21(4,51)                                           1 	(obj:0)
d21(4,52)                                           1 	(obj:0)
d21(4,53)                                           1 	(obj:0)
d21(4,55)                                           1 	(obj:0)
d21(4,58)                                           1 	(obj:0)
d21(4,59)                                           1 	(obj:0)
d21(4,61)                                           1 	(obj:0)
d21(4,62)                                           1 	(obj:0)
d21(4,67)                                           1 	(obj:0)
d21(4,68)                                           1 	(obj:0)
d21(4,69)                                           1 	(obj:0)
d21(4,70)                                           1 	(obj:0)
d21(4,71)                                           1 	(obj:0)
d21(4,73)                                           1 	(obj:0)
d21(4,76)                                           1 	(obj:0)
d21(4,77)                                           1 	(obj:0)
d21(4,79)                                           1 	(obj:0)
d21(4,80)                                           1 	(obj:0)
d21(4,85)                                           1 	(obj:0)
d21(4,86)                                           1 	(obj:0)
d21(4,88)                                           1 	(obj:0)
d21(4,94)                                           1 	(obj:0)
d21(4,95)                                           1 	(obj:0)
d21(4,97)                                           1 	(obj:0)
d21(4,103)                                          1 	(obj:0)
STE(1,1)                             4617.71727048342 	(obj:0)
STE(0,0)                                         7875 	(obj:0)
STE(1,2)                             5614.48327381668 	(obj:0)
STE(1,3)                             6831.93547715009 	(obj:0)
STE(2,4)                             3987.71727048341 	(obj:0)
STE(2,5)                             4839.95220333337 	(obj:0)
STE(2,6)                             5880.87383718341 	(obj:0)
STE(2,7)                             4984.48327381668 	(obj:0)
STE(2,8)                             5836.71820666665 	(obj:0)
STE(2,9)                             6877.63984051667 	(obj:0)
STE(2,10)                            6201.93547715009 	(obj:0)
STE(2,11)                            7054.17041000006 	(obj:0)
STE(2,12)                            8095.09204385008 	(obj:0)
STE(3,13)                            1143.49906381666 	(obj:0)
STE(3,14)                            2140.26506715002 	(obj:0)
STE(3,15)                            3357.71727048341 	(obj:0)
STE(3,16)                            1995.73399666669 	(obj:0)
STE(3,17)                            2992.49999999998 	(obj:0)
STE(3,18)                            4209.95220333337 	(obj:0)
STE(3,19)                            3036.65563051673 	(obj:0)
STE(3,20)                            4033.42163385002 	(obj:0)
STE(3,21)                            5250.87383718341 	(obj:0)
STE(3,22)                               2140.26506715 	(obj:0)
STE(3,23)                            3137.03107048329 	(obj:0)
STE(3,24)                            4354.48327381668 	(obj:0)
STE(3,25)                            2992.49999999996 	(obj:0)
STE(3,26)                            3989.26600333325 	(obj:0)
STE(3,27)                            5206.71820666665 	(obj:0)
STE(3,28)                            4033.42163384999 	(obj:0)
STE(3,29)                            5030.18763718328 	(obj:0)
STE(3,30)                            6247.63984051666 	(obj:0)
STE(3,31)                            3357.71727048341 	(obj:0)
STE(3,32)                             4354.4832738167 	(obj:0)
STE(3,33)                            5571.93547715009 	(obj:0)
STE(3,34)                            4209.95220333337 	(obj:0)
STE(3,35)                            5206.71820666666 	(obj:0)
STE(3,36)                            6424.17041000006 	(obj:0)
STE(3,37)                             5250.8738371834 	(obj:0)
STE(3,38)                            6247.63984051669 	(obj:0)
STE(3,39)                            7465.09204385002 	(obj:0)
STE(4,40)                           -1700.71914284996 	(obj:0)
STE(4,41)                           -703.953139516694 	(obj:0)
STE(4,42)                            513.499063816684 	(obj:0)
STE(4,43)                           -703.953139516646 	(obj:0)
STE(4,44)                            292.812863816645 	(obj:0)
STE(4,45)                            1510.26506715002 	(obj:0)
STE(4,46)                            513.499063816746 	(obj:0)
STE(4,47)                            1510.26506715004 	(obj:0)
STE(4,48)                            2727.71727048341 	(obj:0)
STE(4,49)                           -848.484209999974 	(obj:0)
STE(4,50)                            148.281793333317 	(obj:0)
STE(4,51)                            1365.73399666669 	(obj:0)
STE(4,52)                            148.281793333317 	(obj:0)
STE(4,53)                            1145.04779666661 	(obj:0)
STE(4,54)                            2362.49999999998 	(obj:0)
STE(4,55)                            1365.73399666671 	(obj:0)
STE(4,56)                                      2362.5 	(obj:0)
STE(4,57)                            3579.95220333338 	(obj:0)
STE(4,58)                            192.437423850065 	(obj:0)
STE(4,59)                            1189.20342718336 	(obj:0)
STE(4,60)                            2406.65563051667 	(obj:0)
STE(4,61)                            1189.20342718336 	(obj:0)
STE(4,62)                            2185.96943051665 	(obj:0)
STE(4,63)                            3403.42163385002 	(obj:0)
STE(4,64)                            2406.65563051675 	(obj:0)
STE(4,65)                            3403.42163385004 	(obj:0)
STE(4,66)                            4620.87383718342 	(obj:0)
STE(4,67)                           -703.953139516664 	(obj:0)
STE(4,68)                            292.812863816627 	(obj:0)
STE(4,69)                               1510.26506715 	(obj:0)
STE(4,70)                            292.812863816627 	(obj:0)
STE(4,71)                            1289.57886714992 	(obj:0)
STE(4,72)                             2507.0310704833 	(obj:0)
STE(4,73)                            1510.26506715002 	(obj:0)
STE(4,74)                            2507.03107048331 	(obj:0)
STE(4,75)                            3724.48327381668 	(obj:0)
STE(4,76)                              148.2817933333 	(obj:0)
STE(4,77)                            1145.04779666659 	(obj:0)
STE(4,78)                            2362.49999999997 	(obj:0)
STE(4,79)                            1145.04779666659 	(obj:0)
STE(4,80)                            2141.81379999988 	(obj:0)
STE(4,81)                            3359.26600333325 	(obj:0)
STE(4,82)                            2362.49999999998 	(obj:0)
STE(4,83)                            3359.26600333327 	(obj:0)
STE(4,84)                            4576.71820666665 	(obj:0)
STE(4,85)                            1189.20342718333 	(obj:0)
STE(4,86)                            2185.96943051662 	(obj:0)
STE(4,87)                            3403.42163384999 	(obj:0)
STE(4,88)                            2185.96943051662 	(obj:0)
STE(4,89)                            3182.73543384991 	(obj:0)
STE(4,90)                            4400.18763718328 	(obj:0)
STE(4,91)                               3403.42163385 	(obj:0)
STE(4,92)                            4400.18763718329 	(obj:0)
STE(4,93)                            5617.63984051666 	(obj:0)
STE(4,94)                            513.499063816746 	(obj:0)
STE(4,95)                            1510.26506715004 	(obj:0)
STE(4,96)                            2727.71727048341 	(obj:0)
STE(4,97)                            1510.26506715004 	(obj:0)
STE(4,98)                            2507.03107048333 	(obj:0)
STE(4,99)                             3724.4832738167 	(obj:0)
STE(4,100)                           2727.71727048343 	(obj:0)
STE(4,101)                           3724.48327381672 	(obj:0)
STE(4,102)                           4941.93547715009 	(obj:0)
STE(4,103)                           1365.73399666671 	(obj:0)
STE(4,104)                                     2362.5 	(obj:0)
STE(4,105)                           3579.95220333338 	(obj:0)
STE(4,106)                                     2362.5 	(obj:0)
STE(4,107)                           3359.26600333329 	(obj:0)
STE(4,108)                           4576.71820666666 	(obj:0)
STE(4,109)                           3579.95220333339 	(obj:0)
STE(4,110)                           4576.71820666668 	(obj:0)
STE(4,111)                           5794.17041000006 	(obj:0)
STE(4,112)                           2406.65563051674 	(obj:0)
STE(4,113)                           3403.42163385003 	(obj:0)
STE(4,114)                            4620.8738371834 	(obj:0)
STE(4,115)                           3403.42163385003 	(obj:0)
STE(4,116)                           4400.18763718332 	(obj:0)
STE(4,117)                           5617.63984051669 	(obj:0)
STE(4,118)                           4620.87383718336 	(obj:0)
STE(4,119)                           5617.63984051665 	(obj:0)
STE(4,120)                           6835.09204385002 	(obj:0)
y1(4,100)                                 1992.796386 	(obj:0)
y1(4,101)                            1095.70698300003 	(obj:0)
y1(4,103)                                 1992.796386 	(obj:0)
y1(4,104)                            1095.70698300003 	(obj:0)
y1(4,106)                                 1992.796386 	(obj:0)
y1(4,107)                            1095.70698300003 	(obj:0)
y1(4,109)                                 1992.796386 	(obj:0)
y1(4,110)                            1095.70698300003 	(obj:0)
y1(4,112)                                 1992.796386 	(obj:0)
y1(4,113)                            1095.70698300003 	(obj:0)
y1(4,115)                                 1992.796386 	(obj:0)
y1(4,116)                            1095.70698300003 	(obj:0)
y1(4,118)                                 1992.796386 	(obj:0)
y1(4,119)                            1095.70698300003 	(obj:0)
AVE(3)                                3399.3204933139 	(obj:0)
AVE(4)                               3353.21046544222 	(obj:0)
WG(2)                                2365.88587941176 	(obj:10)
WG(3)                                 3399.3204933139 	(obj:10)
WG(4)                                3353.21046544222 	(obj:10)
BG(1)                                4875.26331996419 	(obj:10)
BG(3)                                 1096.5978566861 	(obj:10)
BG(4)                                1142.70788455776 	(obj:10)
WB(1)                                3134.60043707458 	(obj:0)
AVE(1)                               3134.60043707458 	(obj:0)
WB(2)                                960.565829254669 	(obj:0)
AVE(2)                               3326.45170866643 	(obj:0)
y1(1,1)                              2364.55445656492 	(obj:0)
y1(1,2)                              1467.46505356499 	(obj:0)
y1(1,3)                              371.758070564917 	(obj:0)
y1(3,13)                                  1992.796386 	(obj:0)
y1(3,14)                             1095.70698300005 	(obj:0)
y1(3,16)                             1992.79638600001 	(obj:0)
y1(3,17)                             1095.70698300005 	(obj:0)
y1(3,19)                             1992.79638600001 	(obj:0)
y1(3,20)                             1095.70698300005 	(obj:0)
y1(3,22)                             1992.79638600001 	(obj:0)
y1(3,23)                             1095.70698300005 	(obj:0)
y1(3,25)                             1992.79638600001 	(obj:0)
y1(3,26)                             1095.70698300005 	(obj:0)
y1(3,28)                             1992.79638600001 	(obj:0)
y1(3,29)                             1095.70698300005 	(obj:0)
y1(3,31)                             1992.79638600001 	(obj:0)
y1(3,32)                             1095.70698300005 	(obj:0)
y1(3,34)                             1992.79638600001 	(obj:0)
y1(3,35)                             1095.70698300005 	(obj:0)
y1(3,37)                             1992.79638600001 	(obj:0)
y1(3,38)                             1095.70698300005 	(obj:0)
y1(4,40)                                  1992.796386 	(obj:0)
y1(4,41)                             1095.70698300003 	(obj:0)
y1(4,43)                                  1992.796386 	(obj:0)
y1(4,44)                             1095.70698300003 	(obj:0)
y1(4,46)                                  1992.796386 	(obj:0)
y1(4,47)                             1095.70698300003 	(obj:0)
y1(4,49)                                  1992.796386 	(obj:0)
y1(4,50)                             1095.70698300003 	(obj:0)
y1(4,52)                                  1992.796386 	(obj:0)
y1(4,53)                             1095.70698300003 	(obj:0)
y1(4,55)                                  1992.796386 	(obj:0)
y1(4,56)                             1095.70698300003 	(obj:0)
y1(4,58)                                  1992.796386 	(obj:0)
y1(4,59)                             1095.70698300003 	(obj:0)
y1(4,61)                                  1992.796386 	(obj:0)
y1(4,62)                             1095.70698300003 	(obj:0)
y1(4,64)                                  1992.796386 	(obj:0)
y1(4,65)                             1095.70698300003 	(obj:0)
y1(4,67)                                  1992.796386 	(obj:0)
y1(4,68)                             1095.70698300003 	(obj:0)
y1(4,70)                                  1992.796386 	(obj:0)
y1(4,71)                             1095.70698300003 	(obj:0)
y1(4,73)                                  1992.796386 	(obj:0)
y1(4,74)                             1095.70698300003 	(obj:0)
y1(4,76)                                  1992.796386 	(obj:0)
y1(4,77)                             1095.70698300003 	(obj:0)
y1(4,79)                                  1992.796386 	(obj:0)
y1(4,80)                             1095.70698300003 	(obj:0)
y1(4,82)                                  1992.796386 	(obj:0)
y1(4,83)                             1095.70698300003 	(obj:0)
y1(4,85)                                  1992.796386 	(obj:0)
y1(4,86)                             1095.70698300003 	(obj:0)
y1(4,88)                                  1992.796386 	(obj:0)
y1(4,89)                             1095.70698300003 	(obj:0)
y1(4,91)                                  1992.796386 	(obj:0)
y1(4,92)                             1095.70698300003 	(obj:0)
y1(4,94)                                  1992.796386 	(obj:0)
y1(4,95)                             1095.70698300003 	(obj:0)
y1(4,97)                                  1992.796386 	(obj:0)
y1(4,98)                             1095.70698300003 	(obj:0)
y2(2,5)                               897.08940299995 	(obj:0)
y2(2,6)                              1992.79638599999 	(obj:0)
y2(2,8)                              897.089402999962 	(obj:0)
y2(2,9)                              1992.79638599999 	(obj:0)
y2(2,11)                             897.089402999962 	(obj:0)
y2(2,12)                             1992.79638599999 	(obj:0)
